c CNF file generated from BLIF2CNF script.
c Original BLIF file was blif/frg1.blif
p cnf 150 1033
1 -27 0
-8 -27 0
27 -1 8  0
-27 26 0
-1 -28 0
2 -28 0
-3 -28 0
-9 -28 0
28 1 -2 3 9  0
-28 26 0
-1 -29 0
-3 -29 0
-9 -29 0
13 -29 0
29 1 3 9 -13  0
-29 26 0
-1 -30 0
2 -30 0
-4 -30 0
-22 -30 0
30 1 -2 4 22  0
-30 26 0
-1 -31 0
-4 -31 0
13 -31 0
-22 -31 0
31 1 4 -13 22  0
-31 26 0
-1 -32 0
2 -32 0
-10 -32 0
-23 -32 0
32 1 -2 10 23  0
-32 26 0
-1 -33 0
-10 -33 0
13 -33 0
-23 -33 0
33 1 10 -13 23  0
-33 26 0
-1 -34 0
2 -34 0
-21 -34 0
-24 -34 0
34 1 -2 21 24  0
-34 26 0
-1 -35 0
13 -35 0
-21 -35 0
-24 -35 0
35 1 -13 21 24  0
-35 26 0
-1 -36 0
2 -36 0
-23 -36 0
-24 -36 0
36 1 -2 23 24  0
-36 26 0
-1 -37 0
13 -37 0
-23 -37 0
-24 -37 0
37 1 -13 23 24  0
-37 26 0
-1 -38 0
-2 -38 0
-13 -38 0
-25 -38 0
38 1 2 13 25  0
-38 26 0
-1 -39 0
2 -39 0
-9 -39 0
-18 -39 0
-23 -39 0
39 1 -2 9 18 23  0
-39 26 0
-1 -40 0
-9 -40 0
13 -40 0
-18 -40 0
-23 -40 0
40 1 9 -13 18 23  0
-40 26 0
-1 -41 0
2 -41 0
-9 -41 0
-22 -41 0
-23 -41 0
41 1 -2 9 22 23  0
-41 26 0
-1 -42 0
-9 -42 0
13 -42 0
-22 -42 0
-23 -42 0
42 1 9 -13 22 23  0
-42 26 0
-1 -43 0
2 -43 0
-9 -43 0
-14 -43 0
-19 -43 0
-22 -43 0
43 1 -2 9 14 19 22  0
-43 26 0
-1 -44 0
-9 -44 0
13 -44 0
-14 -44 0
-19 -44 0
-22 -44 0
44 1 9 -13 14 19 22  0
-44 26 0
-1 -45 0
2 -45 0
-9 -45 0
-14 -45 0
-21 -45 0
-22 -45 0
45 1 -2 9 14 21 22  0
-45 26 0
-1 -46 0
-9 -46 0
13 -46 0
-14 -46 0
-21 -46 0
-22 -46 0
46 1 9 -13 14 21 22  0
-46 26 0
-1 -47 0
2 -47 0
-3 -47 0
-4 -47 0
-6 -47 0
-23 -47 0
47 1 -2 3 4 6 23  0
-47 26 0
-1 -48 0
-3 -48 0
-4 -48 0
-6 -48 0
13 -48 0
-23 -48 0
48 1 3 4 6 -13 23  0
-48 26 0
-1 -49 0
2 -49 0
-4 -49 0
-6 -49 0
-18 -49 0
-23 -49 0
49 1 -2 4 6 18 23  0
-49 26 0
-1 -50 0
-4 -50 0
-6 -50 0
13 -50 0
-18 -50 0
-23 -50 0
50 1 4 6 -13 18 23  0
-50 26 0
-1 -51 0
2 -51 0
-16 -51 0
-17 -51 0
-22 -51 0
-23 -51 0
51 1 -2 16 17 22 23  0
-51 26 0
-1 -52 0
13 -52 0
-16 -52 0
-17 -52 0
-22 -52 0
-23 -52 0
52 1 -13 16 17 22 23  0
-52 26 0
-1 -53 0
2 -53 0
-3 -53 0
-4 -53 0
-7 -53 0
-24 -53 0
53 1 -2 3 4 7 24  0
-53 26 0
-1 -54 0
2 -54 0
-4 -54 0
-7 -54 0
-12 -54 0
-24 -54 0
54 1 -2 4 7 12 24  0
-54 26 0
-1 -55 0
2 -55 0
-4 -55 0
-9 -55 0
-12 -55 0
-24 -55 0
55 1 -2 4 9 12 24  0
-55 26 0
-1 -56 0
-3 -56 0
-4 -56 0
-7 -56 0
13 -56 0
-24 -56 0
56 1 3 4 7 -13 24  0
-56 26 0
-1 -57 0
-4 -57 0
-7 -57 0
-12 -57 0
13 -57 0
-24 -57 0
57 1 4 7 12 -13 24  0
-57 26 0
-1 -58 0
-4 -58 0
-9 -58 0
-12 -58 0
13 -58 0
-24 -58 0
58 1 4 9 12 -13 24  0
-58 26 0
-1 -59 0
2 -59 0
-9 -59 0
-12 -59 0
-19 -59 0
-24 -59 0
59 1 -2 9 12 19 24  0
-59 26 0
-1 -60 0
-9 -60 0
-12 -60 0
13 -60 0
-19 -60 0
-24 -60 0
60 1 9 12 -13 19 24  0
-60 26 0
-1 -61 0
2 -61 0
-3 -61 0
-7 -61 0
-20 -61 0
-24 -61 0
61 1 -2 3 7 20 24  0
-61 26 0
-1 -62 0
-3 -62 0
-7 -62 0
13 -62 0
-20 -62 0
-24 -62 0
62 1 3 7 -13 20 24  0
-62 26 0
-1 -63 0
2 -63 0
-9 -63 0
-19 -63 0
-22 -63 0
-24 -63 0
63 1 -2 9 19 22 24  0
-63 26 0
-1 -64 0
-9 -64 0
13 -64 0
-19 -64 0
-22 -64 0
-24 -64 0
64 1 9 -13 19 22 24  0
-64 26 0
-1 -65 0
2 -65 0
-3 -65 0
-20 -65 0
-22 -65 0
-24 -65 0
65 1 -2 3 20 22 24  0
-65 26 0
-1 -66 0
-3 -66 0
13 -66 0
-20 -66 0
-22 -66 0
-24 -66 0
66 1 3 -13 20 22 24  0
-66 26 0
-1 -67 0
2 -67 0
-19 -67 0
-20 -67 0
-22 -67 0
-24 -67 0
67 1 -2 19 20 22 24  0
-67 26 0
-1 -68 0
13 -68 0
-19 -68 0
-20 -68 0
-22 -68 0
-24 -68 0
68 1 -13 19 20 22 24  0
-68 26 0
-1 -69 0
2 -69 0
-3 -69 0
-4 -69 0
-5 -69 0
-6 -69 0
-7 -69 0
69 1 -2 3 4 5 6 7  0
-69 26 0
-1 -70 0
2 -70 0
-3 -70 0
-4 -70 0
-5 -70 0
-7 -70 0
-10 -70 0
70 1 -2 3 4 5 7 10  0
-70 26 0
-1 -71 0
2 -71 0
-4 -71 0
-9 -71 0
-10 -71 0
-11 -71 0
-12 -71 0
71 1 -2 4 9 10 11 12  0
-71 26 0
-1 -72 0
-3 -72 0
-4 -72 0
-5 -72 0
-6 -72 0
-7 -72 0
13 -72 0
72 1 3 4 5 6 7 -13  0
-72 26 0
-1 -73 0
-3 -73 0
-4 -73 0
-5 -73 0
-7 -73 0
-10 -73 0
13 -73 0
73 1 3 4 5 7 10 -13  0
-73 26 0
-1 -74 0
-4 -74 0
-9 -74 0
-10 -74 0
-11 -74 0
-12 -74 0
13 -74 0
74 1 4 9 10 11 12 -13  0
-74 26 0
-1 -75 0
2 -75 0
-4 -75 0
-9 -75 0
-11 -75 0
-12 -75 0
-18 -75 0
75 1 -2 4 9 11 12 18  0
-75 26 0
-1 -76 0
-4 -76 0
-9 -76 0
-11 -76 0
-12 -76 0
13 -76 0
-18 -76 0
76 1 4 9 11 12 -13 18  0
-76 26 0
-1 -77 0
2 -77 0
-3 -77 0
-4 -77 0
-5 -77 0
-6 -77 0
-21 -77 0
77 1 -2 3 4 5 6 21  0
-77 26 0
-1 -78 0
2 -78 0
-3 -78 0
-4 -78 0
-5 -78 0
-10 -78 0
-21 -78 0
78 1 -2 3 4 5 10 21  0
-78 26 0
-1 -79 0
2 -79 0
-4 -79 0
-5 -79 0
-10 -79 0
-11 -79 0
-21 -79 0
79 1 -2 4 5 10 11 21  0
-79 26 0
-1 -80 0
2 -80 0
-4 -80 0
-9 -80 0
-10 -80 0
-11 -80 0
-21 -80 0
80 1 -2 4 9 10 11 21  0
-80 26 0
-1 -81 0
-3 -81 0
-4 -81 0
-5 -81 0
-6 -81 0
13 -81 0
-21 -81 0
81 1 3 4 5 6 -13 21  0
-81 26 0
-1 -82 0
-3 -82 0
-4 -82 0
-5 -82 0
-10 -82 0
13 -82 0
-21 -82 0
82 1 3 4 5 10 -13 21  0
-82 26 0
-1 -83 0
-4 -83 0
-5 -83 0
-10 -83 0
-11 -83 0
13 -83 0
-21 -83 0
83 1 4 5 10 11 -13 21  0
-83 26 0
-1 -84 0
-4 -84 0
-9 -84 0
-10 -84 0
-11 -84 0
13 -84 0
-21 -84 0
84 1 4 9 10 11 -13 21  0
-84 26 0
-1 -85 0
2 -85 0
-9 -85 0
-10 -85 0
-11 -85 0
-14 -85 0
-21 -85 0
85 1 -2 9 10 11 14 21  0
-85 26 0
-1 -86 0
-9 -86 0
-10 -86 0
-11 -86 0
13 -86 0
-14 -86 0
-21 -86 0
86 1 9 10 11 -13 14 21  0
-86 26 0
-1 -87 0
2 -87 0
-3 -87 0
-5 -87 0
-10 -87 0
-15 -87 0
-21 -87 0
87 1 -2 3 5 10 15 21  0
-87 26 0
-1 -88 0
-3 -88 0
-5 -88 0
-10 -88 0
13 -88 0
-15 -88 0
-21 -88 0
88 1 3 5 10 -13 15 21  0
-88 26 0
-1 -89 0
2 -89 0
-4 -89 0
-9 -89 0
-11 -89 0
-18 -89 0
-21 -89 0
89 1 -2 4 9 11 18 21  0
-89 26 0
-1 -90 0
-4 -90 0
-9 -90 0
-11 -90 0
13 -90 0
-18 -90 0
-21 -90 0
90 1 4 9 11 -13 18 21  0
-90 26 0
-1 -91 0
2 -91 0
-9 -91 0
-11 -91 0
-14 -91 0
-18 -91 0
-21 -91 0
91 1 -2 9 11 14 18 21  0
-91 26 0
-1 -92 0
-9 -92 0
-11 -92 0
13 -92 0
-14 -92 0
-18 -92 0
-21 -92 0
92 1 9 11 -13 14 18 21  0
-92 26 0
-1 -93 0
2 -93 0
-3 -93 0
-10 -93 0
-15 -93 0
-20 -93 0
-22 -93 0
93 1 -2 3 10 15 20 22  0
-93 26 0
-1 -94 0
-3 -94 0
-10 -94 0
13 -94 0
-15 -94 0
-20 -94 0
-22 -94 0
94 1 3 10 -13 15 20 22  0
-94 26 0
-1 -95 0
2 -95 0
-3 -95 0
-10 -95 0
-15 -95 0
-21 -95 0
-22 -95 0
95 1 -2 3 10 15 21 22  0
-95 26 0
-1 -96 0
-3 -96 0
-10 -96 0
13 -96 0
-15 -96 0
-21 -96 0
-22 -96 0
96 1 3 10 -13 15 21 22  0
-96 26 0
-1 -97 0
2 -97 0
-10 -97 0
-14 -97 0
-15 -97 0
-21 -97 0
-22 -97 0
97 1 -2 10 14 15 21 22  0
-97 26 0
-1 -98 0
-10 -98 0
13 -98 0
-14 -98 0
-15 -98 0
-21 -98 0
-22 -98 0
98 1 10 -13 14 15 21 22  0
-98 26 0
-1 -99 0
2 -99 0
-3 -99 0
-6 -99 0
-16 -99 0
-17 -99 0
-23 -99 0
99 1 -2 3 6 16 17 23  0
-99 26 0
-1 -100 0
-3 -100 0
-6 -100 0
13 -100 0
-16 -100 0
-17 -100 0
-23 -100 0
100 1 3 6 -13 16 17 23  0
-100 26 0
-1 -101 0
2 -101 0
-6 -101 0
-16 -101 0
-17 -101 0
-18 -101 0
-23 -101 0
101 1 -2 6 16 17 18 23  0
-101 26 0
-1 -102 0
-6 -102 0
13 -102 0
-16 -102 0
-17 -102 0
-18 -102 0
-23 -102 0
102 1 6 -13 16 17 18 23  0
-102 26 0
-1 -103 0
2 -103 0
-7 -103 0
-12 -103 0
-19 -103 0
-20 -103 0
-24 -103 0
103 1 -2 7 12 19 20 24  0
-103 26 0
-1 -104 0
-7 -104 0
-12 -104 0
13 -104 0
-19 -104 0
-20 -104 0
-24 -104 0
104 1 7 12 -13 19 20 24  0
-104 26 0
-1 -105 0
2 -105 0
-4 -105 0
-5 -105 0
-7 -105 0
-10 -105 0
-11 -105 0
-12 -105 0
105 1 -2 4 5 7 10 11 12  0
-105 26 0
-1 -106 0
-4 -106 0
-5 -106 0
-7 -106 0
-10 -106 0
-11 -106 0
-12 -106 0
13 -106 0
106 1 4 5 7 10 11 12 -13  0
-106 26 0
-1 -107 0
2 -107 0
-9 -107 0
-10 -107 0
-11 -107 0
-12 -107 0
-14 -107 0
-19 -107 0
107 1 -2 9 10 11 12 14 19  0
-107 26 0
-1 -108 0
-9 -108 0
-10 -108 0
-11 -108 0
-12 -108 0
13 -108 0
-14 -108 0
-19 -108 0
108 1 9 10 11 12 -13 14 19  0
-108 26 0
-1 -109 0
2 -109 0
-9 -109 0
-11 -109 0
-12 -109 0
-14 -109 0
-18 -109 0
-19 -109 0
109 1 -2 9 11 12 14 18 19  0
-109 26 0
-1 -110 0
-9 -110 0
-11 -110 0
-12 -110 0
13 -110 0
-14 -110 0
-18 -110 0
-19 -110 0
110 1 9 11 12 -13 14 18 19  0
-110 26 0
-1 -111 0
2 -111 0
-3 -111 0
-5 -111 0
-7 -111 0
-10 -111 0
-15 -111 0
-20 -111 0
111 1 -2 3 5 7 10 15 20  0
-111 26 0
-1 -112 0
-3 -112 0
-5 -112 0
-7 -112 0
-10 -112 0
13 -112 0
-15 -112 0
-20 -112 0
112 1 3 5 7 10 -13 15 20  0
-112 26 0
-1 -113 0
2 -113 0
-5 -113 0
-10 -113 0
-11 -113 0
-14 -113 0
-15 -113 0
-21 -113 0
113 1 -2 5 10 11 14 15 21  0
-113 26 0
-1 -114 0
-5 -114 0
-10 -114 0
-11 -114 0
13 -114 0
-14 -114 0
-15 -114 0
-21 -114 0
114 1 5 10 11 -13 14 15 21  0
-114 26 0
-1 -115 0
2 -115 0
-4 -115 0
-5 -115 0
-6 -115 0
-11 -115 0
-18 -115 0
-21 -115 0
115 1 -2 4 5 6 11 18 21  0
-115 26 0
-1 -116 0
-4 -116 0
-5 -116 0
-6 -116 0
-11 -116 0
13 -116 0
-18 -116 0
-21 -116 0
116 1 4 5 6 11 -13 18 21  0
-116 26 0
-1 -117 0
2 -117 0
-3 -117 0
-15 -117 0
-16 -117 0
-17 -117 0
-20 -117 0
-22 -117 0
117 1 -2 3 15 16 17 20 22  0
-117 26 0
-1 -118 0
-3 -118 0
13 -118 0
-15 -118 0
-16 -118 0
-17 -118 0
-20 -118 0
-22 -118 0
118 1 3 -13 15 16 17 20 22  0
-118 26 0
-1 -119 0
2 -119 0
-10 -119 0
-14 -119 0
-15 -119 0
-19 -119 0
-20 -119 0
-22 -119 0
119 1 -2 10 14 15 19 20 22  0
-119 26 0
-1 -120 0
-10 -120 0
13 -120 0
-14 -120 0
-15 -120 0
-19 -120 0
-20 -120 0
-22 -120 0
120 1 10 -13 14 15 19 20 22  0
-120 26 0
-1 -121 0
2 -121 0
-3 -121 0
-15 -121 0
-16 -121 0
-17 -121 0
-21 -121 0
-22 -121 0
121 1 -2 3 15 16 17 21 22  0
-121 26 0
-1 -122 0
-3 -122 0
13 -122 0
-15 -122 0
-16 -122 0
-17 -122 0
-21 -122 0
-22 -122 0
122 1 3 -13 15 16 17 21 22  0
-122 26 0
-1 -123 0
2 -123 0
-14 -123 0
-15 -123 0
-16 -123 0
-17 -123 0
-21 -123 0
-22 -123 0
123 1 -2 14 15 16 17 21 22  0
-123 26 0
-1 -124 0
13 -124 0
-14 -124 0
-15 -124 0
-16 -124 0
-17 -124 0
-21 -124 0
-22 -124 0
124 1 -13 14 15 16 17 21 22  0
-124 26 0
-1 -125 0
2 -125 0
-4 -125 0
-5 -125 0
-6 -125 0
-7 -125 0
-11 -125 0
-12 -125 0
-18 -125 0
125 1 -2 4 5 6 7 11 12 18  0
-125 26 0
-1 -126 0
-4 -126 0
-5 -126 0
-6 -126 0
-7 -126 0
-11 -126 0
-12 -126 0
13 -126 0
-18 -126 0
126 1 4 5 6 7 11 12 -13 18  0
-126 26 0
-1 -127 0
2 -127 0
-3 -127 0
-5 -127 0
-6 -127 0
-15 -127 0
-16 -127 0
-17 -127 0
-21 -127 0
127 1 -2 3 5 6 15 16 17 21  0
-127 26 0
-1 -128 0
-3 -128 0
-5 -128 0
-6 -128 0
13 -128 0
-15 -128 0
-16 -128 0
-17 -128 0
-21 -128 0
128 1 3 5 6 -13 15 16 17 21  0
-128 26 0
-1 -129 0
2 -129 0
-14 -129 0
-15 -129 0
-16 -129 0
-17 -129 0
-19 -129 0
-20 -129 0
-22 -129 0
129 1 -2 14 15 16 17 19 20 22  0
-129 26 0
-1 -130 0
13 -130 0
-14 -130 0
-15 -130 0
-16 -130 0
-17 -130 0
-19 -130 0
-20 -130 0
-22 -130 0
130 1 -13 14 15 16 17 19 20 22  0
-130 26 0
-1 -131 0
2 -131 0
-3 -131 0
-5 -131 0
-6 -131 0
-7 -131 0
-15 -131 0
-16 -131 0
-17 -131 0
-20 -131 0
131 1 -2 3 5 6 7 15 16 17 20  0
-131 26 0
-1 -132 0
-3 -132 0
-5 -132 0
-6 -132 0
-7 -132 0
13 -132 0
-15 -132 0
-16 -132 0
-17 -132 0
-20 -132 0
132 1 3 5 6 7 -13 15 16 17 20  0
-132 26 0
-1 -133 0
2 -133 0
-5 -133 0
-7 -133 0
-10 -133 0
-11 -133 0
-12 -133 0
-14 -133 0
-15 -133 0
-19 -133 0
-20 -133 0
133 1 -2 5 7 10 11 12 14 15 19 20  0
-133 26 0
-1 -134 0
-5 -134 0
-7 -134 0
-10 -134 0
-11 -134 0
-12 -134 0
13 -134 0
-14 -134 0
-15 -134 0
-19 -134 0
-20 -134 0
134 1 5 7 10 11 12 -13 14 15 19 20  0
-134 26 0
-1 -135 0
2 -135 0
-5 -135 0
-6 -135 0
-11 -135 0
-14 -135 0
-15 -135 0
-16 -135 0
-17 -135 0
-18 -135 0
-21 -135 0
135 1 -2 5 6 11 14 15 16 17 18 21  0
-135 26 0
-1 -136 0
-5 -136 0
-6 -136 0
-11 -136 0
13 -136 0
-14 -136 0
-15 -136 0
-16 -136 0
-17 -136 0
-18 -136 0
-21 -136 0
136 1 5 6 11 -13 14 15 16 17 18 21  0
-136 26 0
-1 -137 0
2 -137 0
-5 -137 0
-6 -137 0
-7 -137 0
-11 -137 0
-12 -137 0
-14 -137 0
-15 -137 0
-16 -137 0
-17 -137 0
-18 -137 0
-19 -137 0
-20 -137 0
137 1 -2 5 6 7 11 12 14 15 16 17 18 19 20  0
-137 26 0
-1 -138 0
-5 -138 0
-6 -138 0
-7 -138 0
-11 -138 0
-12 -138 0
13 -138 0
-14 -138 0
-15 -138 0
-16 -138 0
-17 -138 0
-18 -138 0
-19 -138 0
-20 -138 0
138 1 5 6 7 11 12 -13 14 15 16 17 18 19 20  0
-138 26 0
-26 27 28 29 30 31 32 33 34 35 36 37 38 39 40 41 42 43 44 45 46 47 48 49 50 51 52 53 54 55 56 57 58 59 60 61 62 63 64 65 66 67 68 69 70 71 72 73 74 75 76 77 78 79 80 81 82 83 84 85 86 87 88 89 90 91 92 93 94 95 96 97 98 99 100 101 102 103 104 105 106 107 108 109 110 111 112 113 114 115 116 117 118 119 120 121 122 123 124 125 126 127 128 129 130 131 132 133 134 135 136 137 138  0
13 -142 0
142 -13  0
-142 141 0
1 -143 0
143 -1  0
-143 141 0
139 -144 0
-140 -144 0
144 -139 140  0
-144 141 0
139 -145 0
2 -145 0
145 -139 -2  0
-145 141 0
-141 142 143 144 145  0
13 -148 0
-2 -148 0
148 -13 2  0
-148 147 0
-2 -149 0
-146 -149 0
149 2 146  0
-149 147 0
-2 -150 0
1 -150 0
150 2 -1  0
-150 147 0
-147 148 149 150  0
